%BLOCK lattice_cart
5.7235712128  0.0000000000  0.0000000000
0.0000000000  5.7235712128  0.0000000000
0.0000000000  0.0000000000  5.7235712128
%ENDBLOCK lattice_cart

%BLOCK positions_abs
Ca  2.8617856064 2.8617856064 2.8617856064 # Ca0 % NUM=2
Cu  2.8617856064 2.8617856064 2.8617856064 # Cu1 % NUM=2
P  2.8617856064 2.8617856064 2.8617856064 # P2 % NUM=2
%ENDBLOCK positions_abs

#MINSEP=2.0
